0000000000000000
0010000000110000
0011100001111000
0011000001111100
0001100000111000
0001110000011000
0001111000010000
0001111100110000
0001000111100000
0001000011110000
0001100001111000
0011000000110000
0011100000011000
0011111000011000
0001100000001000
0000000000000000
